data_CUBLEQ
_audit_creation_method	'Created with Diamond v2.0'
_audit_creation_date	06-02-22
_audit_update_record	06-02-22
_database_code_CSD	CUBLEQ
_journal_year	1984
_journal_volume	23
_journal_page_first	817
loop_
_publ_author_name
'W.Honle,'
'H.G.von, Schnering'
'A.Schmidpeter,'
'G.Burget,'

_chemical_formula_sum	'C18 H48 Li3 N6 P7'
_chemical_name_systematic
;
(m~3~-Heptaphosphide)-tris((N,N'-tetramethylethylenediamine-N,N')-lithium)
;
_cell_length_a	16.149(17)
_cell_length_b	19.631(18)
_cell_length_c	11.310(9)
_cell_angle_alpha	90.000
_cell_angle_beta	90.000
_cell_angle_gamma	90.000
_cell_volume	3585.5(58)
_cell_formula_units_Z	4
_symmetry_int_tables_number	19
_symmetry_space_group_name_H-M	'P 21 21 21'
_symmetry_space_group_name_Hall	'P_2ac_2ab'

loop_
_atom_type_symbol
_atom_type_oxidation_number
_atom_type_radius_bond
C	?	0.680
H	?	0.230
Li	?	1.190
N	?	0.680
P	?	1.050


loop_
_atom_site_label
_atom_site_type_symbol
_atom_site_fract_x
_atom_site_fract_y
_atom_site_fract_z
_atom_site_occupancy
_atom_site_symmetry_multiplicity
_atom_site_Wyckoff_symbol
_atom_site_attached_hydrogens
_atom_site_calc_flag
_atom_site_thermal_displace_type
_atom_site_u_iso_or_equiv
P1 P  0.5803(3)  0.0877(3)  0.7572(4) ? 4 a ? d ? ?
P2 P  0.4980(4)  0.0777(3)  0.4922(4) ? 4 a ? d ? ?
P3 P  0.4202(4)  0.0194(3)  0.6238(6) ? 4 a ? d ? ?
P4 P  0.4112(4)  0.1338(3)  0.6139(6) ? 4 a ? d ? ?
P5 P  0.6194(3)  0.0837(3)  0.5715(4) ? 4 a ? d ? ?
P6 P  0.5011(4) -0.0039(3)  0.7685(5) ? 4 a ? d ? ?
P7 P  0.4872(4)  0.1701(3)  0.7563(7) ? 4 a ? d ? ?
C1 C  0.6723(18)  0.3003(16)  0.7583(30) ? 4 a ? d ? ?
N1 N  0.6853(9)  0.2711(6)  0.6490(13) ? 4 a ? d ? ?
C2 C  0.6899(15)  0.3181(14)  0.5604(46) ? 4 a ? d ? ?
C3 C  0.6303(17)  0.3377(13)  0.4857(30) ? 4 a ? d ? ?
N2 N  0.5630(11)  0.2834(8)  0.4659(17) ? 4 a ? d ? ?
C4 C  0.4847(18)  0.3184(14)  0.4815(37) ? 4 a ? d ? ?
C5 C  0.5673(22)  0.2508(14)  0.3498(22) ? 4 a ? d ? ?
C6 C  0.7676(12)  0.2343(9)  0.6490(29) ? 4 a ? d ? ?
C7 C  0.4770(16)  0.0195(10)  1.1129(20) ? 4 a ? d ? ?
N3 N  0.4381(8)  0.0816(8)  1.0641(11) ? 4 a ? d ? ?
C8 C  0.3530(17)  0.0841(15)  1.1088(16) ? 4 a ? d ? ?
C9 C  0.2903(17)  0.0724(17)  1.0381(20) ? 4 a ? d ? ?
N4 N  0.2887(7)  0.0816(8)  0.9153(11) ? 4 a ? d ? ?
C10 C  0.2407(15)  0.0256(12)  0.8591(20) ? 4 a ? d ? ?
C11 C  0.2555(13)  0.1446(12)  0.8789(30) ? 4 a ? d ? ?
C12 C  0.4881(18)  0.1383(11)  1.1014(19) ? 4 a ? d ? ?
C13 C  0.6152(18) -0.0939(12)  0.3709(16) ? 4 a ? d ? ?
N5 N  0.5953(10) -0.1190(7)  0.4864(16) ? 4 a ? d ? ?
C14 C  0.6565(16) -0.1634(11)  0.5239(25) ? 4 a ? d ? ?
C15 C  0.7306(19) -0.1467(17)  0.5852(30) ? 4 a ? d ? ?
N6 N  0.7064(11) -0.0950(13)  0.6860(18) ? 4 a ? d ? ?
C16 C  0.6926(27) -0.1297(23)  0.7999(27) ? 4 a ? d ? ?
C17 C  0.7778(20) -0.0594(19)  0.7000(36) ? 4 a ? d ? ?
C18 C  0.5152(18) -0.1519(15)  0.4884(29) ? 4 a ? d ? ?
Li1 Li  0.5859(17)  0.2087(11)  0.5957(26) ? 4 a ? d ? ?
Li2 Li  0.4160(18)  0.0806(17)  0.8814(25) ? 4 a ? d ? ?
Li3 Li  0.6129(25) -0.0472(15)  0.6218(26) ? 4 a ? d ? ?
H1 H  0.6612  0.2652  0.8141 ? 4 a ? d ? ?
H2 H  0.6278  0.3314  0.7530 ? 4 a ? d ? ?
H3 H  0.7225  0.3240  0.7803 ? 4 a ? d ? ?
H4 H  0.7350  0.3039  0.5088 ? 4 a ? d ? ?
H5 H  0.7067  0.3607  0.5977 ? 4 a ? d ? ?
H6 H  0.6038  0.3772  0.5160 ? 4 a ? d ? ?
H7 H  0.6540  0.3471  0.4096 ? 4 a ? d ? ?
H8 H  0.4826  0.3396  0.5574 ? 4 a ? d ? ?
H9 H  0.4400  0.2856  0.4754 ? 4 a ? d ? ?
H10 H  0.4779  0.3520  0.4207 ? 4 a ? d ? ?
H11 H  0.6210  0.2295  0.3414 ? 4 a ? d ? ?
H12 H  0.5598  0.2837  0.2892 ? 4 a ? d ? ?
H13 H  0.5253  0.2163  0.3448 ? 4 a ? d ? ?
H14 H  0.7689  0.2017  0.7122 ? 4 a ? d ? ?
H15 H  0.8116  0.2665  0.6591 ? 4 a ? d ? ?
H16 H  0.7750  0.2107  0.5748 ? 4 a ? d ? ?
H17 H  0.5337  0.0175  1.0891 ? 4 a ? d ? ?
H18 H  0.4482 -0.0201  1.0835 ? 4 a ? d ? ?
H19 H  0.4735  0.0201  1.1976 ? 4 a ? d ? ?
H20 H  0.3474  0.1258  1.1457 ? 4 a ? d ? ?
H21 H  0.3511  0.0469  1.1660 ? 4 a ? d ? ?
H22 H  0.2691  0.0286  1.0509 ? 4 a ? d ? ?
H23 H  0.2476  0.1061  1.0649 ? 4 a ? d ? ?
H24 H  0.2400  0.0322  0.7744 ? 4 a ? d ? ?
H25 H  0.1853  0.0263  0.8885 ? 4 a ? d ? ?
H26 H  0.2666 -0.0169  0.8769 ? 4 a ? d ? ?
H27 H  0.2512  0.1477  0.7961 ? 4 a ? d ? ?
H28 H  0.2897  0.1812  0.9093 ? 4 a ? d ? ?
H29 H  0.2005  0.1498  0.9142 ? 4 a ? d ? ?
H30 H  0.4752  0.1773  1.0549 ? 4 a ? d ? ?
H31 H  0.5464  0.1264  1.0881 ? 4 a ? d ? ?
H32 H  0.4802  0.1470  1.1830 ? 4 a ? d ? ?
H33 H  0.5750 -0.0618  0.3463 ? 4 a ? d ? ?
H34 H  0.6173 -0.1316  0.3163 ? 4 a ? d ? ?
H35 H  0.6694 -0.0726  0.3728 ? 4 a ? d ? ?
H36 H  0.6299 -0.1965  0.5751 ? 4 a ? d ? ?
H37 H  0.6761 -0.1871  0.4543 ? 4 a ? d ? ?
H38 H  0.7553 -0.1867  0.6200 ? 4 a ? d ? ?
H39 H  0.7693 -0.1257  0.5327 ? 4 a ? d ? ?
H40 H  0.6466 -0.1628  0.7919 ? 4 a ? d ? ?
H41 H  0.6755 -0.0974  0.8599 ? 4 a ? d ? ?
H42 H  0.7400 -0.1537  0.8258 ? 4 a ? d ? ?
H43 H  0.7679 -0.0264  0.7622 ? 4 a ? d ? ?
H44 H  0.7945 -0.0408  0.6313 ? 4 a ? d ? ?
H45 H  0.8186 -0.0921  0.7316 ? 4 a ? d ? ?
H46 H  0.4734 -0.1181  0.4782 ? 4 a ? d ? ?
H47 H  0.5082 -0.1749  0.5621 ? 4 a ? d ? ?
H48 H  0.5131 -0.1841  0.4246 ? 4 a ? d ? ?

